Res/generated_sat_001.cnf
c Hard 3-SAT instance at phase transition threshold
c Variables: 5
c Clauses: 21
c Ratio: 4.26 (critical threshold)
p cnf 5 21
-4 2 3 0
-2 -5 3 0
3 -2 5 0
5 -4 3 0
5 3 4 0
-3 -4 -5 0
5 -3 2 0
5 -1 3 0
-4 -2 -3 0
-4 5 1 0
-3 4 5 0
-2 5 3 0
-3 -1 -2 0
4 -1 2 0
4 2 3 0
-5 -1 2 0
-4 -2 -1 0
1 -4 -2 0
2 -3 -5 0
1 4 3 0
-1 2 -5 0