Res/generated_sat_001.cnf.sol
c Solution pour ../Res/generated_sat_001.cnf
c Temps: 0.000s
c Noeuds: 514
v -1 2 3 -4 5 0
